12
0 40 48 58 95 73 29 80 67 42 42 53
40 0 69 5 58 54 59 60 26 28 52 70
48 69 0 24 15 76 85 18 45 51 20 22
58 5 24 0 79 22 47 66 24 69 28 57
95 58 15 79 0 18 65 28 60 22 70 40
73 54 76 22 18 0 51 39 83 84 31 66
29 59 85 47 65 51 0 39 64 43 32 41
80 60 18 66 28 39 39 0 61 34 55 70
67 26 45 24 60 83 64 61 0 40 76 83
42 28 51 69 22 84 43 34 40 0 74 40
42 52 20 28 70 31 32 55 76 74 0 69
53 70 22 57 40 66 41 70 83 40 69 0
